54166
9, 14, 2, 45, 11, 42, 33, 1, 27, 31, 25, 52, 15, 36, 46, 39, 16, 10, 22, 29, 21, 23, 53, 34, 54, 55, 28, 6, 3, 43, 40, 51, 13, 5, 37, 7, 20, 50, 24, 35, 38, 8, 44, 32, 41, 19, 17, 48, 49, 26, 47, 30, 4, 18, 12
